(declare-sort Loc 0)
(declare-const l0 Loc)
(declare-const l1 Loc)
(declare-const l3 Loc)
(declare-const l4 Loc)
(declare-const l5 Loc)
(declare-const l6 Loc)
(declare-const l7 Loc)
(declare-const l8 Loc)
(declare-const l9 Loc)
(declare-const l10 Loc)
(declare-const l11 Loc)
(declare-const l12 Loc)
(declare-const l13 Loc)
(declare-const l14 Loc)
(declare-const l15 Loc)
(declare-const l16 Loc)
(declare-const l17 Loc)
(declare-const l2 Loc)
(declare-const l18 Loc)
(assert (distinct l0 l1 l3 l4 l5 l6 l7 l8 l9 l10 l11 l12 l13 l14 l15 l16 l17 l2 l18))

(define-fun cfg_init ( (pc Loc) (src Loc) (rel Bool) ) Bool
  (and (= pc src) rel))

(define-fun cfg_trans2 ( (pc Loc) (src Loc)
                         (pc1 Loc) (dst Loc)
                         (rel Bool) ) Bool
  (and (= pc src) (= pc1 dst) rel))

(define-fun cfg_trans3 ( (pc Loc) (exit Loc)
                         (pc1 Loc) (call Loc)
                         (pc2 Loc) (return Loc)
                         (rel Bool) ) Bool
  (and (= pc exit) (= pc1 call) (= pc2 return) rel))

(define-fun init_main ( (pc^0 Loc) (__disjvr_0^0 Int) (__disjvr_10^0 Int) (__disjvr_11^0 Int) (__disjvr_12^0 Int) (__disjvr_13^0 Int) (__disjvr_14^0 Int) (__disjvr_1^0 Int) (__disjvr_2^0 Int) (__disjvr_3^0 Int) (__disjvr_4^0 Int) (__disjvr_5^0 Int) (__disjvr_6^0 Int) (__disjvr_7^0 Int) (__disjvr_8^0 Int) (__disjvr_9^0 Int) (x^0 Int) (y^0 Int) ) Bool
  (cfg_init pc^0 l18 true))

(define-fun next_main (
                 (pc^0 Loc) (__disjvr_0^0 Int) (__disjvr_10^0 Int) (__disjvr_11^0 Int) (__disjvr_12^0 Int) (__disjvr_13^0 Int) (__disjvr_14^0 Int) (__disjvr_1^0 Int) (__disjvr_2^0 Int) (__disjvr_3^0 Int) (__disjvr_4^0 Int) (__disjvr_5^0 Int) (__disjvr_6^0 Int) (__disjvr_7^0 Int) (__disjvr_8^0 Int) (__disjvr_9^0 Int) (x^0 Int) (y^0 Int)
                 (pc^post Loc) (__disjvr_0^post Int) (__disjvr_10^post Int) (__disjvr_11^post Int) (__disjvr_12^post Int) (__disjvr_13^post Int) (__disjvr_14^post Int) (__disjvr_1^post Int) (__disjvr_2^post Int) (__disjvr_3^post Int) (__disjvr_4^post Int) (__disjvr_5^post Int) (__disjvr_6^post Int) (__disjvr_7^post Int) (__disjvr_8^post Int) (__disjvr_9^post Int) (x^post Int) (y^post Int)
             ) Bool
  (or
    (cfg_trans2 pc^0 l0 pc^post l1 (and (and (and (and (and (and (and (and (and (and (and (and (and (and (and (and (= __disjvr_0^0 __disjvr_0^post) (= __disjvr_1^0 __disjvr_1^post)) (= __disjvr_10^0 __disjvr_10^post)) (= __disjvr_11^0 __disjvr_11^post)) (= __disjvr_12^0 __disjvr_12^post)) (= __disjvr_13^0 __disjvr_13^post)) (= __disjvr_14^0 __disjvr_14^post)) (= __disjvr_2^0 __disjvr_2^post)) (= __disjvr_3^0 __disjvr_3^post)) (= __disjvr_4^0 __disjvr_4^post)) (= __disjvr_5^0 __disjvr_5^post)) (= __disjvr_6^0 __disjvr_6^post)) (= __disjvr_7^0 __disjvr_7^post)) (= __disjvr_8^0 __disjvr_8^post)) (= __disjvr_9^0 __disjvr_9^post)) (= x^0 x^post)) (= y^0 y^post)))
    (cfg_trans2 pc^0 l1 pc^post l3 (and (and (and (and (and (and (and (and (and (and (and (and (and (and (and (and (and (= __disjvr_0^post __disjvr_0^0) (= __disjvr_0^0 __disjvr_0^post)) (= __disjvr_1^0 __disjvr_1^post)) (= __disjvr_10^0 __disjvr_10^post)) (= __disjvr_11^0 __disjvr_11^post)) (= __disjvr_12^0 __disjvr_12^post)) (= __disjvr_13^0 __disjvr_13^post)) (= __disjvr_14^0 __disjvr_14^post)) (= __disjvr_2^0 __disjvr_2^post)) (= __disjvr_3^0 __disjvr_3^post)) (= __disjvr_4^0 __disjvr_4^post)) (= __disjvr_5^0 __disjvr_5^post)) (= __disjvr_6^0 __disjvr_6^post)) (= __disjvr_7^0 __disjvr_7^post)) (= __disjvr_8^0 __disjvr_8^post)) (= __disjvr_9^0 __disjvr_9^post)) (= x^0 x^post)) (= y^0 y^post)))
    (cfg_trans2 pc^0 l3 pc^post l4 (and (and (and (and (and (and (and (and (and (and (and (and (and (and (and (and (and (and (<= (+ 0 x^0) 0) (<= 0 (+ 0 x^0))) (= x^post (+ 0 y^0))) (= __disjvr_0^0 __disjvr_0^post)) (= __disjvr_1^0 __disjvr_1^post)) (= __disjvr_10^0 __disjvr_10^post)) (= __disjvr_11^0 __disjvr_11^post)) (= __disjvr_12^0 __disjvr_12^post)) (= __disjvr_13^0 __disjvr_13^post)) (= __disjvr_14^0 __disjvr_14^post)) (= __disjvr_2^0 __disjvr_2^post)) (= __disjvr_3^0 __disjvr_3^post)) (= __disjvr_4^0 __disjvr_4^post)) (= __disjvr_5^0 __disjvr_5^post)) (= __disjvr_6^0 __disjvr_6^post)) (= __disjvr_7^0 __disjvr_7^post)) (= __disjvr_8^0 __disjvr_8^post)) (= __disjvr_9^0 __disjvr_9^post)) (= y^0 y^post)))
    (cfg_trans2 pc^0 l4 pc^post l5 (and (and (and (and (and (and (and (and (and (and (and (and (and (and (and (and (and (= __disjvr_1^post __disjvr_1^0) (= __disjvr_0^0 __disjvr_0^post)) (= __disjvr_1^0 __disjvr_1^post)) (= __disjvr_10^0 __disjvr_10^post)) (= __disjvr_11^0 __disjvr_11^post)) (= __disjvr_12^0 __disjvr_12^post)) (= __disjvr_13^0 __disjvr_13^post)) (= __disjvr_14^0 __disjvr_14^post)) (= __disjvr_2^0 __disjvr_2^post)) (= __disjvr_3^0 __disjvr_3^post)) (= __disjvr_4^0 __disjvr_4^post)) (= __disjvr_5^0 __disjvr_5^post)) (= __disjvr_6^0 __disjvr_6^post)) (= __disjvr_7^0 __disjvr_7^post)) (= __disjvr_8^0 __disjvr_8^post)) (= __disjvr_9^0 __disjvr_9^post)) (= x^0 x^post)) (= y^0 y^post)))
    (cfg_trans2 pc^0 l5 pc^post l6 (and (and (and (and (and (and (and (and (and (and (and (and (and (and (and (and (and (= __disjvr_2^post __disjvr_2^0) (= __disjvr_0^0 __disjvr_0^post)) (= __disjvr_1^0 __disjvr_1^post)) (= __disjvr_10^0 __disjvr_10^post)) (= __disjvr_11^0 __disjvr_11^post)) (= __disjvr_12^0 __disjvr_12^post)) (= __disjvr_13^0 __disjvr_13^post)) (= __disjvr_14^0 __disjvr_14^post)) (= __disjvr_2^0 __disjvr_2^post)) (= __disjvr_3^0 __disjvr_3^post)) (= __disjvr_4^0 __disjvr_4^post)) (= __disjvr_5^0 __disjvr_5^post)) (= __disjvr_6^0 __disjvr_6^post)) (= __disjvr_7^0 __disjvr_7^post)) (= __disjvr_8^0 __disjvr_8^post)) (= __disjvr_9^0 __disjvr_9^post)) (= x^0 x^post)) (= y^0 y^post)))
    (cfg_trans2 pc^0 l6 pc^post l7 (and (and (and (and (and (and (and (and (and (and (and (and (and (and (and (and (and (= __disjvr_3^post __disjvr_3^0) (= __disjvr_0^0 __disjvr_0^post)) (= __disjvr_1^0 __disjvr_1^post)) (= __disjvr_10^0 __disjvr_10^post)) (= __disjvr_11^0 __disjvr_11^post)) (= __disjvr_12^0 __disjvr_12^post)) (= __disjvr_13^0 __disjvr_13^post)) (= __disjvr_14^0 __disjvr_14^post)) (= __disjvr_2^0 __disjvr_2^post)) (= __disjvr_3^0 __disjvr_3^post)) (= __disjvr_4^0 __disjvr_4^post)) (= __disjvr_5^0 __disjvr_5^post)) (= __disjvr_6^0 __disjvr_6^post)) (= __disjvr_7^0 __disjvr_7^post)) (= __disjvr_8^0 __disjvr_8^post)) (= __disjvr_9^0 __disjvr_9^post)) (= x^0 x^post)) (= y^0 y^post)))
    (cfg_trans2 pc^0 l7 pc^post l8 (and (and (and (and (and (and (and (and (and (and (and (and (and (and (and (and (and (= __disjvr_4^post __disjvr_4^0) (= __disjvr_0^0 __disjvr_0^post)) (= __disjvr_1^0 __disjvr_1^post)) (= __disjvr_10^0 __disjvr_10^post)) (= __disjvr_11^0 __disjvr_11^post)) (= __disjvr_12^0 __disjvr_12^post)) (= __disjvr_13^0 __disjvr_13^post)) (= __disjvr_14^0 __disjvr_14^post)) (= __disjvr_2^0 __disjvr_2^post)) (= __disjvr_3^0 __disjvr_3^post)) (= __disjvr_4^0 __disjvr_4^post)) (= __disjvr_5^0 __disjvr_5^post)) (= __disjvr_6^0 __disjvr_6^post)) (= __disjvr_7^0 __disjvr_7^post)) (= __disjvr_8^0 __disjvr_8^post)) (= __disjvr_9^0 __disjvr_9^post)) (= x^0 x^post)) (= y^0 y^post)))
    (cfg_trans2 pc^0 l8 pc^post l9 (and (and (and (and (and (and (and (and (and (and (and (and (and (and (and (and (and (= __disjvr_5^post __disjvr_5^0) (= __disjvr_0^0 __disjvr_0^post)) (= __disjvr_1^0 __disjvr_1^post)) (= __disjvr_10^0 __disjvr_10^post)) (= __disjvr_11^0 __disjvr_11^post)) (= __disjvr_12^0 __disjvr_12^post)) (= __disjvr_13^0 __disjvr_13^post)) (= __disjvr_14^0 __disjvr_14^post)) (= __disjvr_2^0 __disjvr_2^post)) (= __disjvr_3^0 __disjvr_3^post)) (= __disjvr_4^0 __disjvr_4^post)) (= __disjvr_5^0 __disjvr_5^post)) (= __disjvr_6^0 __disjvr_6^post)) (= __disjvr_7^0 __disjvr_7^post)) (= __disjvr_8^0 __disjvr_8^post)) (= __disjvr_9^0 __disjvr_9^post)) (= x^0 x^post)) (= y^0 y^post)))
    (cfg_trans2 pc^0 l9 pc^post l10 (and (and (and (and (and (and (and (and (and (and (and (and (and (and (and (and (and (= __disjvr_6^post __disjvr_6^0) (= __disjvr_0^0 __disjvr_0^post)) (= __disjvr_1^0 __disjvr_1^post)) (= __disjvr_10^0 __disjvr_10^post)) (= __disjvr_11^0 __disjvr_11^post)) (= __disjvr_12^0 __disjvr_12^post)) (= __disjvr_13^0 __disjvr_13^post)) (= __disjvr_14^0 __disjvr_14^post)) (= __disjvr_2^0 __disjvr_2^post)) (= __disjvr_3^0 __disjvr_3^post)) (= __disjvr_4^0 __disjvr_4^post)) (= __disjvr_5^0 __disjvr_5^post)) (= __disjvr_6^0 __disjvr_6^post)) (= __disjvr_7^0 __disjvr_7^post)) (= __disjvr_8^0 __disjvr_8^post)) (= __disjvr_9^0 __disjvr_9^post)) (= x^0 x^post)) (= y^0 y^post)))
    (cfg_trans2 pc^0 l10 pc^post l11 (and (and (and (and (and (and (and (and (and (and (and (and (and (and (and (and (and (= __disjvr_7^post __disjvr_7^0) (= __disjvr_0^0 __disjvr_0^post)) (= __disjvr_1^0 __disjvr_1^post)) (= __disjvr_10^0 __disjvr_10^post)) (= __disjvr_11^0 __disjvr_11^post)) (= __disjvr_12^0 __disjvr_12^post)) (= __disjvr_13^0 __disjvr_13^post)) (= __disjvr_14^0 __disjvr_14^post)) (= __disjvr_2^0 __disjvr_2^post)) (= __disjvr_3^0 __disjvr_3^post)) (= __disjvr_4^0 __disjvr_4^post)) (= __disjvr_5^0 __disjvr_5^post)) (= __disjvr_6^0 __disjvr_6^post)) (= __disjvr_7^0 __disjvr_7^post)) (= __disjvr_8^0 __disjvr_8^post)) (= __disjvr_9^0 __disjvr_9^post)) (= x^0 x^post)) (= y^0 y^post)))
    (cfg_trans2 pc^0 l11 pc^post l12 (and (and (and (and (and (and (and (and (and (and (and (and (and (and (and (and (and (= __disjvr_8^post __disjvr_8^0) (= __disjvr_0^0 __disjvr_0^post)) (= __disjvr_1^0 __disjvr_1^post)) (= __disjvr_10^0 __disjvr_10^post)) (= __disjvr_11^0 __disjvr_11^post)) (= __disjvr_12^0 __disjvr_12^post)) (= __disjvr_13^0 __disjvr_13^post)) (= __disjvr_14^0 __disjvr_14^post)) (= __disjvr_2^0 __disjvr_2^post)) (= __disjvr_3^0 __disjvr_3^post)) (= __disjvr_4^0 __disjvr_4^post)) (= __disjvr_5^0 __disjvr_5^post)) (= __disjvr_6^0 __disjvr_6^post)) (= __disjvr_7^0 __disjvr_7^post)) (= __disjvr_8^0 __disjvr_8^post)) (= __disjvr_9^0 __disjvr_9^post)) (= x^0 x^post)) (= y^0 y^post)))
    (cfg_trans2 pc^0 l12 pc^post l13 (and (and (and (and (and (and (and (and (and (and (and (and (and (and (and (and (and (= __disjvr_9^post __disjvr_9^0) (= __disjvr_0^0 __disjvr_0^post)) (= __disjvr_1^0 __disjvr_1^post)) (= __disjvr_10^0 __disjvr_10^post)) (= __disjvr_11^0 __disjvr_11^post)) (= __disjvr_12^0 __disjvr_12^post)) (= __disjvr_13^0 __disjvr_13^post)) (= __disjvr_14^0 __disjvr_14^post)) (= __disjvr_2^0 __disjvr_2^post)) (= __disjvr_3^0 __disjvr_3^post)) (= __disjvr_4^0 __disjvr_4^post)) (= __disjvr_5^0 __disjvr_5^post)) (= __disjvr_6^0 __disjvr_6^post)) (= __disjvr_7^0 __disjvr_7^post)) (= __disjvr_8^0 __disjvr_8^post)) (= __disjvr_9^0 __disjvr_9^post)) (= x^0 x^post)) (= y^0 y^post)))
    (cfg_trans2 pc^0 l13 pc^post l14 (and (and (and (and (and (and (and (and (and (and (and (and (and (and (and (and (and (= __disjvr_10^post __disjvr_10^0) (= __disjvr_0^0 __disjvr_0^post)) (= __disjvr_1^0 __disjvr_1^post)) (= __disjvr_10^0 __disjvr_10^post)) (= __disjvr_11^0 __disjvr_11^post)) (= __disjvr_12^0 __disjvr_12^post)) (= __disjvr_13^0 __disjvr_13^post)) (= __disjvr_14^0 __disjvr_14^post)) (= __disjvr_2^0 __disjvr_2^post)) (= __disjvr_3^0 __disjvr_3^post)) (= __disjvr_4^0 __disjvr_4^post)) (= __disjvr_5^0 __disjvr_5^post)) (= __disjvr_6^0 __disjvr_6^post)) (= __disjvr_7^0 __disjvr_7^post)) (= __disjvr_8^0 __disjvr_8^post)) (= __disjvr_9^0 __disjvr_9^post)) (= x^0 x^post)) (= y^0 y^post)))
    (cfg_trans2 pc^0 l14 pc^post l15 (and (and (and (and (and (and (and (and (and (and (and (and (and (and (and (and (and (= __disjvr_11^post __disjvr_11^0) (= __disjvr_0^0 __disjvr_0^post)) (= __disjvr_1^0 __disjvr_1^post)) (= __disjvr_10^0 __disjvr_10^post)) (= __disjvr_11^0 __disjvr_11^post)) (= __disjvr_12^0 __disjvr_12^post)) (= __disjvr_13^0 __disjvr_13^post)) (= __disjvr_14^0 __disjvr_14^post)) (= __disjvr_2^0 __disjvr_2^post)) (= __disjvr_3^0 __disjvr_3^post)) (= __disjvr_4^0 __disjvr_4^post)) (= __disjvr_5^0 __disjvr_5^post)) (= __disjvr_6^0 __disjvr_6^post)) (= __disjvr_7^0 __disjvr_7^post)) (= __disjvr_8^0 __disjvr_8^post)) (= __disjvr_9^0 __disjvr_9^post)) (= x^0 x^post)) (= y^0 y^post)))
    (cfg_trans2 pc^0 l15 pc^post l16 (and (and (and (and (and (and (and (and (and (and (and (and (and (and (and (and (and (= __disjvr_12^post __disjvr_12^0) (= __disjvr_0^0 __disjvr_0^post)) (= __disjvr_1^0 __disjvr_1^post)) (= __disjvr_10^0 __disjvr_10^post)) (= __disjvr_11^0 __disjvr_11^post)) (= __disjvr_12^0 __disjvr_12^post)) (= __disjvr_13^0 __disjvr_13^post)) (= __disjvr_14^0 __disjvr_14^post)) (= __disjvr_2^0 __disjvr_2^post)) (= __disjvr_3^0 __disjvr_3^post)) (= __disjvr_4^0 __disjvr_4^post)) (= __disjvr_5^0 __disjvr_5^post)) (= __disjvr_6^0 __disjvr_6^post)) (= __disjvr_7^0 __disjvr_7^post)) (= __disjvr_8^0 __disjvr_8^post)) (= __disjvr_9^0 __disjvr_9^post)) (= x^0 x^post)) (= y^0 y^post)))
    (cfg_trans2 pc^0 l16 pc^post l17 (and (and (and (and (and (and (and (and (and (and (and (and (and (and (and (and (and (= __disjvr_13^post __disjvr_13^0) (= __disjvr_0^0 __disjvr_0^post)) (= __disjvr_1^0 __disjvr_1^post)) (= __disjvr_10^0 __disjvr_10^post)) (= __disjvr_11^0 __disjvr_11^post)) (= __disjvr_12^0 __disjvr_12^post)) (= __disjvr_13^0 __disjvr_13^post)) (= __disjvr_14^0 __disjvr_14^post)) (= __disjvr_2^0 __disjvr_2^post)) (= __disjvr_3^0 __disjvr_3^post)) (= __disjvr_4^0 __disjvr_4^post)) (= __disjvr_5^0 __disjvr_5^post)) (= __disjvr_6^0 __disjvr_6^post)) (= __disjvr_7^0 __disjvr_7^post)) (= __disjvr_8^0 __disjvr_8^post)) (= __disjvr_9^0 __disjvr_9^post)) (= x^0 x^post)) (= y^0 y^post)))
    (cfg_trans2 pc^0 l17 pc^post l2 (and (and (and (and (and (and (and (and (and (and (and (and (and (and (and (and (and (= __disjvr_14^post __disjvr_14^0) (= __disjvr_0^0 __disjvr_0^post)) (= __disjvr_1^0 __disjvr_1^post)) (= __disjvr_10^0 __disjvr_10^post)) (= __disjvr_11^0 __disjvr_11^post)) (= __disjvr_12^0 __disjvr_12^post)) (= __disjvr_13^0 __disjvr_13^post)) (= __disjvr_14^0 __disjvr_14^post)) (= __disjvr_2^0 __disjvr_2^post)) (= __disjvr_3^0 __disjvr_3^post)) (= __disjvr_4^0 __disjvr_4^post)) (= __disjvr_5^0 __disjvr_5^post)) (= __disjvr_6^0 __disjvr_6^post)) (= __disjvr_7^0 __disjvr_7^post)) (= __disjvr_8^0 __disjvr_8^post)) (= __disjvr_9^0 __disjvr_9^post)) (= x^0 x^post)) (= y^0 y^post)))
    (cfg_trans2 pc^0 l2 pc^post l1 (and (and (and (and (and (and (and (and (and (and (and (and (and (and (and (and (= __disjvr_0^0 __disjvr_0^post) (= __disjvr_1^0 __disjvr_1^post)) (= __disjvr_10^0 __disjvr_10^post)) (= __disjvr_11^0 __disjvr_11^post)) (= __disjvr_12^0 __disjvr_12^post)) (= __disjvr_13^0 __disjvr_13^post)) (= __disjvr_14^0 __disjvr_14^post)) (= __disjvr_2^0 __disjvr_2^post)) (= __disjvr_3^0 __disjvr_3^post)) (= __disjvr_4^0 __disjvr_4^post)) (= __disjvr_5^0 __disjvr_5^post)) (= __disjvr_6^0 __disjvr_6^post)) (= __disjvr_7^0 __disjvr_7^post)) (= __disjvr_8^0 __disjvr_8^post)) (= __disjvr_9^0 __disjvr_9^post)) (= x^0 x^post)) (= y^0 y^post)))
    (cfg_trans2 pc^0 l18 pc^post l0 (and (and (and (and (and (and (and (and (and (and (and (and (and (and (and (and (= __disjvr_0^0 __disjvr_0^post) (= __disjvr_1^0 __disjvr_1^post)) (= __disjvr_10^0 __disjvr_10^post)) (= __disjvr_11^0 __disjvr_11^post)) (= __disjvr_12^0 __disjvr_12^post)) (= __disjvr_13^0 __disjvr_13^post)) (= __disjvr_14^0 __disjvr_14^post)) (= __disjvr_2^0 __disjvr_2^post)) (= __disjvr_3^0 __disjvr_3^post)) (= __disjvr_4^0 __disjvr_4^post)) (= __disjvr_5^0 __disjvr_5^post)) (= __disjvr_6^0 __disjvr_6^post)) (= __disjvr_7^0 __disjvr_7^post)) (= __disjvr_8^0 __disjvr_8^post)) (= __disjvr_9^0 __disjvr_9^post)) (= x^0 x^post)) (= y^0 y^post)))
  )
)
